%%%%%%%%%%%%%%%%%
% Larger data set
%%%%%%%%%%%%%%%%%

% The flights are assumed to be sorted by increasing order of expected arrival time

% number of flights
nf = 20; 

% number of corridors
nc = 3;

% expected time of arrival in seconds

expectedtime = [75, 180, 265, 270, 285, 320, 330, 435, 565, 660, 685, 690, 715, 720, 735, 740, 855, 860, 880, 885];

% aircraft categories (A=1, B=2, C=3)

category = [2,3,3,2,3,1,3,1,2,2,1,3,2,1,3,2,3,3,2,3];

% aircraft corridors

corridor = [1,2,1,1,1,2,1,3,3,1,1,2,1,3,1,1,2,1,1,1];
